52
100
80	3
79	3
78	2
77	1
76	2
75	2
74	2
73	1
72	2
71	2
70	1
69	1
68	3
66	2
65	1
64	1
63	1
62	1
61	1
60	3
59	3
58	2
57	2
55	2
54	2
52	3
51	1
50	5
49	2
48	1
47	1
45	1
44	4
43	1
42	1
41	2
40	1
39	2
38	1
37	2
36	2
35	3
32	1
31	2
30	2
28	3
27	3
26	1
24	3
23	2
21	1
20	3
